n_res = 4;
rcap = [15, 18, 24, 22];
rtype = [1, 1, 2, 2];
n_tasks = 16;
modes = [ {1, 2, 3, 4}, {5, 6, 7, 8}, {9, 10, 11, 12}, {13, 14, 15, 16}, {17, 18, 19, 20}, {21, 22, 23, 24}, {25, 26, 27, 28}, {29, 30, 31, 32}, {33, 34, 35, 36}, {37, 38, 39, 40}, {41, 42, 43, 44}, {45, 46, 47, 48}, {49, 50, 51, 52}, {53, 54, 55, 56}, {57, 58, 59, 60}, {61, 62, 63, 64} ];
succ = [ {7, 8, 9}, {13, 14}, {4, 6, 7}, {5, 12, 15}, {9}, {11, 12, 15}, {14, 16}, {10, 11, 14}, {11}, {12, 13, 15}, {13}, {16}, {16}, {}, {}, {} ];
n_opt = 64;
dur = [3, 4, 6, 7, 5, 6, 6, 6, 5, 8, 10, 10, 4, 7, 7, 9, 1, 2, 6, 10, 1, 1, 3, 7, 1, 2, 2, 6, 3, 3, 6, 8, 1, 6, 6, 9, 3, 5, 6, 10, 2, 4, 4, 6, 3, 7, 8, 9, 1, 7, 7, 9, 2, 5, 6, 8, 1, 2, 6, 10, 2, 3, 6, 8];
rreq = [|  0,  0,  0,  7,  7,  0,  6,  6,  0,  0,  0,  7,  0,  0,  9,  0,  0,  5,  5,  5, 10, 10, 10,  0,  3,  3,  2,  0,  7,  5,  5,  0,  0,  0,  7,  7,  8,  8,  0,  8,  9,  5,  0,  0,  0,  6,  0,  4,  0,  9, 10,  0,  8,  0,  0,  0,  0,  6,  6,  5,  0,  0, 10,  8
        |  9,  8,  8,  0,  0,  6,  0,  0,  6,  6,  4,  0, 10, 10,  0, 10,  7,  0,  0,  0,  0,  0,  0,  6,  0,  0,  0,  7,  0,  0,  0,  6,  5,  1,  0,  0,  0,  0,  5,  0,  0,  0,  9,  5,  9,  0,  4,  0,  8,  0,  0,  6,  0,  9,  7,  4,  6,  0,  0,  0,  5,  2,  0,  0
        |  0,  0,  2,  0,  6,  5,  0,  6,  0,  0,  0,  7,  0,  0,  5,  3,  0,  6,  4,  0,  0,  6,  4,  0, 10,  8,  9,  0,  8, 10,  7,  1,  0,  0,  3,  2,  0, 10,  9,  0,  4,  0,  0,  2,  0,  0,  0,  6,  0,  6,  5,  2,  6,  5,  0,  5,  0,  0,  0,  0,  0,  6,  6,  6
        |  7,  5,  0,  2,  0,  0,  6,  0,  8,  6,  5,  0,  9,  8,  0,  0,  7,  0,  0,  5,  9,  0,  0,  8,  0,  0,  0,  1,  0,  0,  0,  0,  2,  2,  0,  0,  4,  0,  0,  2,  0,  9,  7,  0,  5,  4,  4,  0,  5,  0,  0,  0,  0,  0,  1,  0,  4,  4,  3,  3,  3,  0,  0,  0 |];
